(set-logic ALL)
(set-option :produce-models true)
(declare-sort BoundSet 0)
(declare-sort UnboundSet 0)
(declare-fun IsWearing (BoundSet BoundSet) Bool)
(declare-fun IsShoppingFor (BoundSet) Bool)
(assert (not (=> (exists ((c BoundSet)) (exists ((a BoundSet)) (exists ((b BoundSet)) (and (IsWearing a b) (IsShoppingFor c))))) (exists ((e BoundSet)) (exists ((d BoundSet)) (IsWearing d e))))))
(check-sat)
(get-model)